Instancias/Instancias_pequeñas/instance8A.dat
8 

0 13 4 78 66 23 49 30 
88 0 43 45 69 88 78 22 
100 86 0 11 79 95 22 100 
37 67 23 0 31 75 45 85 
14 93 17 52 0 93 22 27 
41 22 31 25 97 0 42 84 
45 72 66 25 18 92 0 93 
56 31 58 85 69 35 95 0 

0 43 78 22 71 35 86 56 
64 0 7 52 15 24 27 75 
94 7 0 35 90 63 3 29 
30 4 28 0 59 53 49 22 
4 59 87 23 0 19 97 33 
11 65 22 19 25 0 22 93 
51 17 80 96 61 85 0 69 
29 54 55 43 19 92 86 0 
