Soluciones/instance8A.out
118676 0.040442
8
6 5 2 4 1 3 0 7 